magmas/benchmarks/p/input4/Equation2113_implies_Equation1334.p
fof(a1, axiom,
    ! [X0, X1, X2] :
        (X0 = op(op(op(X1,X0),X2),op(X1,X2)))
).

fof(conjecture0, conjecture,
    ! [X0, X1, X2] :
        (X0 = op(X1,op(op(op(X1,X2),X0),X2)))
).
