magmas/benchmarks/smt2/input4/Equation2113_implies_Equation1334.p.smt2
(declare-sort $$unsorted 0)
(declare-fun tptp.op ($$unsorted $$unsorted) $$unsorted)
(assert (forall ((X0 $$unsorted) (X1 $$unsorted) (X2 $$unsorted)) (= X0 (tptp.op (tptp.op (tptp.op X1 X0) X2) (tptp.op X1 X2)))))
(assert (not (forall ((X0 $$unsorted) (X1 $$unsorted) (X2 $$unsorted)) (= X0 (tptp.op X1 (tptp.op (tptp.op (tptp.op X1 X2) X0) X2))))))
(set-info :filename Equation2113_implies_Equation1334)
(check-sat-assuming ( true ))
